(set-option :auto-config false)
(set-option :model true)
(set-option :model.partial false)

(set-option :smt.mbqi false)

(define-sort Str () Int)
(declare-fun strLen (Str) Int)
(declare-fun subString (Str Int Int) Str)
(declare-fun concatString (Str Str) Str)
(define-sort Elt () Int)
(define-sort LSet () (Array Elt Bool))
(define-fun smt_set_emp () LSet ((as const LSet) false))
(define-fun smt_set_mem ((x Elt) (s LSet)) Bool (select s x))
(define-fun smt_set_add ((s LSet) (x Elt)) LSet (store s x true))
(define-fun smt_set_cup ((s1 LSet) (s2 LSet)) LSet ((_ map or) s1 s2))
(define-fun smt_set_cap ((s1 LSet) (s2 LSet)) LSet ((_ map and) s1 s2))
(define-fun smt_set_com ((s LSet)) LSet ((_ map not) s))
(define-fun smt_set_dif ((s1 LSet) (s2 LSet)) LSet (smt_set_cap s1 (smt_set_com s2)))
(define-fun smt_set_sub ((s1 LSet) (s2 LSet)) Bool (= smt_set_emp (smt_set_dif s1 s2)))
(define-sort Map () (Array Elt Elt))
(define-fun smt_map_sel ((m Map) (k Elt)) Elt (select m k))
(define-fun smt_map_sto ((m Map) (k Elt) (v Elt)) Map (store m k v))
(define-fun smt_map_cup ((m1 Map) (m2 Map)) Map ((_ map (+ (Elt Elt) Elt)) m1 m2))
(define-fun smt_map_def ((v Elt)) Map ((as const (Map)) v))
(define-fun bool_to_int ((b Bool)) Int (ite b 1 0))
(define-fun Z3_OP_MUL ((x Int) (y Int)) Int (* x y))
(define-fun Z3_OP_DIV ((x Int) (y Int)) Int (div x y))
(declare-fun lq_anf$36$$35$$35$7205759403792808450$35$$35$d3Rw () Int)
(declare-fun GHC.Base.id () Int)
(declare-fun cast_as_int () Int)
(declare-fun Internal.Sparse.SparseC () Int)
(declare-fun Internal.Element.PosCyc () Int)
(declare-fun GHC.List.init () Int)
(declare-fun Internal.Matrix.$36$WMatrix () Int)
(declare-fun GHC.Arr.Array () Int)
(declare-fun lq_anf$36$$35$$35$7205759403792808455$35$$35$d3RB () Int)
(declare-fun addrLen () Int)
(declare-fun papp5 () Int)
(declare-fun GHC.List.iterate () Int)
(declare-fun x_Tuple21 () Int)
(declare-fun x_Tuple65 () Int)
(declare-fun GHC.Classes.$61$$61$ () Int)
(declare-fun GHC.Types.C$35$ () Int)
(declare-fun GHC.List.drop () Int)
(declare-fun GHC.Int.I64$35$ () Int)
(declare-fun x_Tuple55 () Int)
(declare-fun GHC.Arr.$36$WArray () Int)
(declare-fun is$36$GHC.Types.$91$$93$ () Int)
(declare-fun Data.Foldable.length () Int)
(declare-fun x_Tuple33 () Int)
(declare-fun is$36$GHC.Tuple.$40$$44$$44$$44$$44$$44$$41$ () Int)
(declare-fun is$36$GHC.Tuple.$40$$44$$44$$44$$41$ () Int)
(declare-fun is$36$GHC.Tuple.$40$$44$$41$ () Int)
(declare-fun GHC.Types.LT () Int)
(declare-fun GHC.List.replicate () Int)
(declare-fun GHC.List.zipWith () Int)
(declare-fun GHC.Classes.$62$$61$ () Int)
(declare-fun System.IO.print () Int)
(declare-fun GHC.Num.fromInteger () Int)
(declare-fun papp3 () Int)
(declare-fun GHC.Generics.SSym () Int)
(declare-fun Internal.Sparse.Diag () Int)
(declare-fun GHC.List.span () Int)
(declare-fun x_Tuple63 () Int)
(declare-fun lq_tmp$36$x$35$$35$612 () Real)
(declare-fun lqdc$35$$35$$36$select$35$$35$GHC.Tuple.$40$$44$$44$$41$$35$$35$1 () Int)
(declare-fun x_Tuple41 () Int)
(declare-fun Internal.Element.Take () Int)
(declare-fun GHC.Generics.$36$WSNoSourceStrictness () Int)
(declare-fun GHC.Classes.$62$ () Int)
(declare-fun GHC.Generics.SSourceUnpack () Int)
(declare-fun lqdc$35$$35$$36$select$35$$35$GHC.Tuple.$40$$44$$44$$44$$44$$41$$35$$35$1 () Int)
(declare-fun GHC.Types.False () Bool)
(declare-fun GHC.List.scanr1 () Int)
(declare-fun GHC.Generics.$36$WSNoSourceUnpackedness () Int)
(declare-fun lqdc$35$$35$$36$select$35$$35$GHC.Types.$58$$35$$35$1 () Int)
(declare-fun Internal.Element.DropLast () Int)
(declare-fun Internal.Conversion.C$58$RealElement () Int)
(declare-fun Internal.Algorithms.LU () Int)
(declare-fun lq_tmp$36$x$35$$35$533 () Real)
(declare-fun Data.Vector.length () Int)
(declare-fun GHC.Generics.$36$WUDouble () Int)
(declare-fun GHC.Types.$58$ () Int)
(declare-fun GHC.List.scanl () Int)
(declare-fun GHC.Generics.SJust () Int)
(declare-fun GHC.Generics.$36$WSRightAssociative () Int)
(declare-fun Data.Vector.map () Int)
(declare-fun GHC.Tuple.$40$$44$$44$$41$ () Int)
(declare-fun papp4 () Int)
(declare-fun GHC.Types.Module () Int)
(declare-fun GHC.Generics.$36$WSSourceLazy () Int)
(declare-fun GHC.List.zip () Int)
(declare-fun x_Tuple64 () Int)
(declare-fun GHC.Generics.SInfix () Int)
(declare-fun lq_tmp$36$x$35$$35$516 () Real)
(declare-fun GHC.Tuple.$40$$41$ () Int)
(declare-fun GHC.Generics.SPrefix () Int)
(declare-fun GHC.Types.I$35$ () Int)
(declare-fun GHC.Generics.UWord () Int)
(declare-fun Internal.Sparse.SparseR () Int)
(declare-fun GHC.Generics.SDecidedLazy () Int)
(declare-fun lq_anf$36$$35$$35$7205759403792808449$35$$35$d3Rv () Real)
(declare-fun GHC.Tuple.$40$$44$$44$$44$$44$$41$ () Int)
(declare-fun Internal.LAPACK.Lower () Int)
(declare-fun GHC.Generics.$36$WSNotAssociative () Int)
(declare-fun GHC.Generics.$36$WSSourceNoUnpack () Int)
(declare-fun GHC.Generics.UInt () Int)
(declare-fun GHC.List.dropWhile () Int)
(declare-fun Internal.Element.All () Int)
(declare-fun GHC.Real.C$58$Fractional () Int)
(declare-fun autolen () Int)
(declare-fun Internal.Vectorized.Uniform () Int)
(declare-fun VV$35$$35$F$35$$35$6 () Int)
(declare-fun x_Tuple52 () Int)
(declare-fun GHC.Integer.Type.$36$WJn$35$ () Int)
(declare-fun GHC.Real.$94$ () Int)
(declare-fun head () Int)
(declare-fun GHC.Generics.UAddr () Int)
(declare-fun lq_anf$36$$35$$35$7205759403792808452$35$$35$d3Ry () Int)
(declare-fun GHC.Generics.SNothing () Int)
(declare-fun is$36$GHC.Tuple.$40$$44$$44$$41$ () Int)
(declare-fun GHC.Generics.SNotAssociative () Int)
(declare-fun GHC.Generics.SSourceNoUnpack () Int)
(declare-fun is$36$GHC.Tuple.$40$$44$$44$$44$$44$$41$ () Int)
(declare-fun GHC.TopHandler.runMainIO () Int)
(declare-fun GHC.Integer.Type.Jn$35$ () Int)
(declare-fun GHC.Generics.$36$WUAddr () Int)
(declare-fun GHC.Generics.UFloat () Int)
(declare-fun GHC.Classes.compare () Int)
(declare-fun GHC.Generics.$36$WSDecidedStrict () Int)
(declare-fun is$36$GHC.Types.$58$ () Int)
(declare-fun papp2 () Int)
(declare-fun Data.Vector.$36$WVector () Int)
(declare-fun Data.Vector.Storable.fromList () Int)
(declare-fun x_Tuple62 () Int)
(declare-fun GHC.Generics.$36$WSFalse () Int)
(declare-fun lit$36$Main () Str)
(declare-fun GHC.Stack.Types.EmptyCallStack () Int)
(declare-fun lq_tmp$36$x$35$$35$634 () Real)
(declare-fun GHC.List.reverse () Int)
(declare-fun GHC.Integer.Type.$36$WJp$35$ () Int)
(declare-fun Internal.Element.Range () Int)
(declare-fun lqdc$35$$35$$36$select$35$$35$GHC.Tuple.$40$$44$$44$$44$$44$$41$$35$$35$5 () Int)
(declare-fun lit$36$main () Str)
(declare-fun GHC.List.filter () Int)
(declare-fun GHC.Generics.$36$WSInfix () Int)
(declare-fun fromJust () Int)
(declare-fun Data.Vector.Mutable.$36$WMVector () Int)
(declare-fun GHC.List.cycle () Int)
(declare-fun lq_anf$36$$35$$35$7205759403792808456$35$$35$d3RC () Int)
(declare-fun GHC.List.$33$$33$ () Int)
(declare-fun lq_anf$36$$35$$35$7205759403792808454$35$$35$d3RA () Int)
(declare-fun GHC.List.tail () Int)
(declare-fun Internal.Numeric.C$58$Numeric () Int)
(declare-fun GHC.Generics.$36$WSDecidedLazy () Int)
(declare-fun papp7 () Int)
(declare-fun GHC.Classes.$47$$61$ () Int)
(declare-fun GHC.Tuple.$40$$44$$44$$44$$44$$44$$41$ () Int)
(declare-fun GHC.Generics.SNoSourceStrictness () Int)
(declare-fun x_Tuple53 () Int)
(declare-fun Internal.Algorithms.Herm () Int)
(declare-fun GHC.List.break () Int)
(declare-fun GHC.Types.True () Bool)
(declare-fun Internal.Vectorized.Gaussian () Int)
(declare-fun GHC.Generics.$36$WSSourceUnpack () Int)
(declare-fun GHC.Types.$91$$93$ () Int)
(declare-fun GHC.List.splitAt () Int)
(declare-fun GHC.Tuple.$40$$44$$44$$44$$41$ () Int)
(declare-fun lqdc$35$$35$$36$select$35$$35$GHC.Tuple.$40$$44$$44$$44$$44$$44$$41$$35$$35$6 () Int)
(declare-fun GHC.Base.$43$$43$ () Int)
(declare-fun GHC.Real.$58$$37$ () Int)
(declare-fun Data.Vector.head () Int)
(declare-fun GHC.Generics.SNoSourceUnpackedness () Int)
(declare-fun GHC.Generics.SDecidedUnpack () Int)
(declare-fun GHC.Tuple.$40$$44$$41$ () Int)
(declare-fun Data.Complex.$58$$43$ () Int)
(declare-fun Internal.Container.$60$.$62$ () Int)
(declare-fun GHC.Classes.$38$$38$ () Int)
(declare-fun lq_tmp$36$x$35$$35$605 () Real)
(declare-fun lqdc$35$$35$$36$select$35$$35$GHC.Tuple.$40$$44$$44$$44$$41$$35$$35$3 () Int)
(declare-fun GHC.Types.GT () Int)
(declare-fun GHC.Classes.C$58$IP () Int)
(declare-fun GHC.Classes.$124$$124$ () Int)
(declare-fun Data.Either.Left () Int)
(declare-fun GHC.List.last () Int)
(declare-fun lqdc$35$$35$$36$select$35$$35$GHC.Tuple.$40$$44$$44$$44$$44$$44$$41$$35$$35$3 () Int)
(declare-fun Data.Vector.imap () Int)
(declare-fun GHC.Integer.Type.S$35$ () Int)
(declare-fun GHC.List.scanl1 () Int)
(declare-fun Data.Either.Right () Int)
(declare-fun GHC.Num.$45$ () Int)
(declare-fun len () Int)
(declare-fun papp6 () Int)
(declare-fun GHC.Base.. () Int)
(declare-fun x_Tuple22 () Int)
(declare-fun Internal.Algorithms.LDL () Int)
(declare-fun Internal.Matrix.Matrix () Int)
(declare-fun x_Tuple66 () Int)
(declare-fun x_Tuple44 () Int)
(declare-fun lqdc$35$$35$$36$select$35$$35$GHC.Tuple.$40$$44$$44$$44$$44$$41$$35$$35$4 () Int)
(declare-fun GHC.Real.$36$W$58$$37$ () Int)
(declare-fun lqdc$35$$35$$36$select$35$$35$GHC.Tuple.$40$$44$$44$$44$$44$$44$$41$$35$$35$5 () Int)
(declare-fun lq_anf$36$$35$$35$7205759403792808453$35$$35$d3Rz () Real)
(declare-fun lq_anf$36$$35$$35$7205759403792808451$35$$35$d3Rx () Int)
(declare-fun isJust () Int)
(declare-fun lq_tmp$36$x$35$$35$588 () Real)
(declare-fun Data.Complex.$36$W$58$$43$ () Int)
(declare-fun GHC.List.takeWhile () Int)
(declare-fun GHC.Types.TrNameD () Int)
(declare-fun GHC.Generics.$36$WSDecidedUnpack () Int)
(declare-fun Data.Vector.unsafeIndex () Int)
(declare-fun lqdc$35$$35$$36$select$35$$35$GHC.Tuple.$40$$44$$44$$44$$41$$35$$35$2 () Int)
(declare-fun x_Tuple31 () Int)
(declare-fun GHC.Integer.Type.Jp$35$ () Int)
(declare-fun lqdc$35$$35$$36$select$35$$35$GHC.Tuple.$40$$44$$44$$44$$44$$44$$41$$35$$35$2 () Int)
(declare-fun Data.Vector.Mutable.MVector () Int)
(declare-fun GHC.IO.Exception.IOError () Int)
(declare-fun GHC.List.take () Int)
(declare-fun GHC.Stack.Types.PushCallStack () Int)
(declare-fun Internal.Element.Pos () Int)
(declare-fun GHC.Classes.$60$$61$ () Int)
(declare-fun GHC.Types.TrNameS () Int)
(declare-fun Data.Vector.fromList () Int)
(declare-fun GHC.Enum.C$58$Bounded () Int)
(declare-fun GHC.Base.map () Int)
(declare-fun GHC.Generics.SLeftAssociative () Int)
(declare-fun lqdc$35$$35$$36$select$35$$35$GHC.Tuple.$40$$44$$41$$35$$35$2 () Int)
(declare-fun Data.Vector.Storable.$36$WVector () Int)
(declare-fun GHC.Base.$36$ () Int)
(declare-fun papp1 () Int)
(declare-fun GHC.Float.$36$fShowDouble () Int)
(declare-fun GHC.Generics.$36$WUChar () Int)
(declare-fun GHC.Classes.max () Int)
(declare-fun Internal.CG.CGState () Int)
(declare-fun GHC.Generics.$36$WSSourceStrict () Int)
(declare-fun Internal.Element.TakeLast () Int)
(declare-fun x_Tuple61 () Int)
(declare-fun lqdc$35$$35$$36$select$35$$35$GHC.Tuple.$40$$44$$44$$41$$35$$35$3 () Int)
(declare-fun Data.Vector.$33$ () Int)
(declare-fun x_Tuple43 () Int)
(declare-fun GHC.Types.D$35$ () Int)
(declare-fun Internal.Algorithms.QR () Int)
(declare-fun GHC.Classes.$60$ () Int)
(declare-fun tail () Int)
(declare-fun lqdc$35$$35$$36$select$35$$35$GHC.Tuple.$40$$44$$44$$44$$44$$41$$35$$35$3 () Int)
(declare-fun GHC.Generics.SDecidedStrict () Int)
(declare-fun Data.Vector.Vector () Int)
(declare-fun Internal.Element.Drop () Int)
(declare-fun Internal.Numeric.$36$fNumericDouble () Int)
(declare-fun Foreign.C.Types.CInt () Int)
(declare-fun Data.Vector.replicate () Int)
(declare-fun Internal.Sparse.Dense () Int)
(declare-fun GHC.Stack.Types.FreezeCallStack () Int)
(declare-fun GHC.Generics.$36$WSTrue () Int)
(declare-fun GHC.Generics.$36$WUFloat () Int)
(declare-fun GHC.Generics.SFalse () Int)
(declare-fun GHC.Num.$42$ () Int)
(declare-fun GHC.Generics.STrue () Int)
(declare-fun x_Tuple51 () Int)
(declare-fun GHC.Generics.SSourceStrict () Int)
(declare-fun GHC.Generics.$36$WUInt () Int)
(declare-fun GHC.Generics.UChar () Int)
(declare-fun lqdc$35$$35$$36$select$35$$35$GHC.Tuple.$40$$44$$44$$44$$41$$35$$35$4 () Int)
(declare-fun GHC.Maybe.Nothing () Int)
(declare-fun Main.test () Real)
(declare-fun GHC.Generics.$36$WSNothing () Int)
(declare-fun lqdc$35$$35$$36$select$35$$35$GHC.Tuple.$40$$44$$44$$44$$44$$44$$41$$35$$35$4 () Int)
(declare-fun GHC.Types.EQ () Int)
(declare-fun GHC.List.scanr () Int)
(declare-fun GHC.Generics.$36$WUWord () Int)
(declare-fun GHC.Generics.SSourceLazy () Int)
(declare-fun GHC.Num.negate () Int)
(declare-fun GHC.Generics.$36$WSJust () Int)
(declare-fun GHC.Generics.SRightAssociative () Int)
(declare-fun GHC.Generics.$36$WSPrefix () Int)
(declare-fun GHC.Real.fromIntegral () Int)
(declare-fun GHC.Maybe.Just () Int)
(declare-fun Main.main () Int)
(declare-fun GHC.Classes.min () Int)
(declare-fun GHC.Generics.UDouble () Int)
(declare-fun Data.Vector.Storable.Vector () Int)
(declare-fun lq_tmp$36$x$35$$35$562 () Real)
(declare-fun lq_tmp$36$x$35$$35$540 () Real)
(declare-fun GHC.Generics.$36$WSLeftAssociative () Int)
(declare-fun GHC.List.head () Int)
(declare-fun lqdc$35$$35$$36$select$35$$35$GHC.Tuple.$40$$44$$41$$35$$35$1 () Int)
(declare-fun x_Tuple54 () Int)
(declare-fun lqdc$35$$35$$36$select$35$$35$GHC.Tuple.$40$$44$$44$$44$$41$$35$$35$1 () Int)
(declare-fun x_Tuple32 () Int)
(declare-fun lqdc$35$$35$$36$select$35$$35$GHC.Tuple.$40$$44$$44$$44$$44$$44$$41$$35$$35$1 () Int)
(declare-fun lqdc$35$$35$$36$select$35$$35$GHC.Tuple.$40$$44$$44$$44$$44$$41$$35$$35$2 () Int)
(declare-fun GHC.List.repeat () Int)
(declare-fun lqdc$35$$35$$36$select$35$$35$GHC.Types.$58$$35$$35$2 () Int)
(declare-fun vlen () Int)
(declare-fun GHC.Classes.not () Int)
(declare-fun GHC.Num.$43$ () Int)
(declare-fun Data.Tuple.fst () Int)
(declare-fun Foreign.Storable.$36$fStorableDouble () Int)
(declare-fun GHC.Generics.$36$WSSym () Int)
(declare-fun GHC.Real.C$58$Integral () Int)
(declare-fun GHC.Err.error () Int)
(declare-fun snd () Int)
(declare-fun fst () Int)
(declare-fun lqdc$35$$35$$36$select$35$$35$GHC.Tuple.$40$$44$$44$$41$$35$$35$2 () Int)
(declare-fun x_Tuple42 () Int)
(declare-fun Internal.LAPACK.Upper () Int)
(declare-fun Data.Tuple.snd () Int)
(declare-fun apply$35$$35$21 (Int (_ BitVec 32)) Bool)
(declare-fun apply$35$$35$16 (Int Str) Bool)
(declare-fun apply$35$$35$8 (Int Bool) Str)
(declare-fun apply$35$$35$19 (Int Str) (_ BitVec 32))
(declare-fun apply$35$$35$12 (Int Real) Real)
(declare-fun apply$35$$35$24 (Int (_ BitVec 32)) (_ BitVec 32))
(declare-fun apply$35$$35$0 (Int Int) Int)
(declare-fun apply$35$$35$7 (Int Bool) Real)
(declare-fun apply$35$$35$15 (Int Str) Int)
(declare-fun apply$35$$35$1 (Int Int) Bool)
(declare-fun apply$35$$35$13 (Int Real) Str)
(declare-fun apply$35$$35$14 (Int Real) (_ BitVec 32))
(declare-fun apply$35$$35$22 (Int (_ BitVec 32)) Real)
(declare-fun apply$35$$35$9 (Int Bool) (_ BitVec 32))
(declare-fun apply$35$$35$2 (Int Int) Real)
(declare-fun apply$35$$35$10 (Int Real) Int)
(declare-fun apply$35$$35$23 (Int (_ BitVec 32)) Str)
(declare-fun apply$35$$35$18 (Int Str) Str)
(declare-fun apply$35$$35$6 (Int Bool) Bool)
(declare-fun apply$35$$35$11 (Int Real) Bool)
(declare-fun apply$35$$35$3 (Int Int) Str)
(declare-fun apply$35$$35$20 (Int (_ BitVec 32)) Int)
(declare-fun apply$35$$35$4 (Int Int) (_ BitVec 32))
(declare-fun apply$35$$35$5 (Int Bool) Int)
(declare-fun apply$35$$35$17 (Int Str) Real)
(declare-fun coerce$35$$35$21 ((_ BitVec 32)) Bool)
(declare-fun coerce$35$$35$16 (Str) Bool)
(declare-fun coerce$35$$35$8 (Bool) Str)
(declare-fun coerce$35$$35$19 (Str) (_ BitVec 32))
(declare-fun coerce$35$$35$12 (Real) Real)
(declare-fun coerce$35$$35$24 ((_ BitVec 32)) (_ BitVec 32))
(declare-fun coerce$35$$35$0 (Int) Int)
(declare-fun coerce$35$$35$7 (Bool) Real)
(declare-fun coerce$35$$35$15 (Str) Int)
(declare-fun coerce$35$$35$1 (Int) Bool)
(declare-fun coerce$35$$35$13 (Real) Str)
(declare-fun coerce$35$$35$14 (Real) (_ BitVec 32))
(declare-fun coerce$35$$35$22 ((_ BitVec 32)) Real)
(declare-fun coerce$35$$35$9 (Bool) (_ BitVec 32))
(declare-fun coerce$35$$35$2 (Int) Real)
(declare-fun coerce$35$$35$10 (Real) Int)
(declare-fun coerce$35$$35$23 ((_ BitVec 32)) Str)
(declare-fun coerce$35$$35$18 (Str) Str)
(declare-fun coerce$35$$35$6 (Bool) Bool)
(declare-fun coerce$35$$35$11 (Real) Bool)
(declare-fun coerce$35$$35$3 (Int) Str)
(declare-fun coerce$35$$35$20 ((_ BitVec 32)) Int)
(declare-fun coerce$35$$35$4 (Int) (_ BitVec 32))
(declare-fun coerce$35$$35$5 (Bool) Int)
(declare-fun coerce$35$$35$17 (Str) Real)
(declare-fun smt_lambda$35$$35$21 ((_ BitVec 32) Bool) Int)
(declare-fun smt_lambda$35$$35$16 (Str Bool) Int)
(declare-fun smt_lambda$35$$35$8 (Bool Str) Int)
(declare-fun smt_lambda$35$$35$19 (Str (_ BitVec 32)) Int)
(declare-fun smt_lambda$35$$35$12 (Real Real) Int)
(declare-fun smt_lambda$35$$35$24 ((_ BitVec 32) (_ BitVec 32)) Int)
(declare-fun smt_lambda$35$$35$0 (Int Int) Int)
(declare-fun smt_lambda$35$$35$7 (Bool Real) Int)
(declare-fun smt_lambda$35$$35$15 (Str Int) Int)
(declare-fun smt_lambda$35$$35$1 (Int Bool) Int)
(declare-fun smt_lambda$35$$35$13 (Real Str) Int)
(declare-fun smt_lambda$35$$35$14 (Real (_ BitVec 32)) Int)
(declare-fun smt_lambda$35$$35$22 ((_ BitVec 32) Real) Int)
(declare-fun smt_lambda$35$$35$9 (Bool (_ BitVec 32)) Int)
(declare-fun smt_lambda$35$$35$2 (Int Real) Int)
(declare-fun smt_lambda$35$$35$10 (Real Int) Int)
(declare-fun smt_lambda$35$$35$23 ((_ BitVec 32) Str) Int)
(declare-fun smt_lambda$35$$35$18 (Str Str) Int)
(declare-fun smt_lambda$35$$35$6 (Bool Bool) Int)
(declare-fun smt_lambda$35$$35$11 (Real Bool) Int)
(declare-fun smt_lambda$35$$35$3 (Int Str) Int)
(declare-fun smt_lambda$35$$35$20 ((_ BitVec 32) Int) Int)
(declare-fun smt_lambda$35$$35$4 (Int (_ BitVec 32)) Int)
(declare-fun smt_lambda$35$$35$5 (Bool Int) Int)
(declare-fun smt_lambda$35$$35$17 (Str Real) Int)
(declare-fun lam_arg$35$$35$1$35$$35$0 () Int)
(declare-fun lam_arg$35$$35$2$35$$35$0 () Int)
(declare-fun lam_arg$35$$35$3$35$$35$0 () Int)
(declare-fun lam_arg$35$$35$4$35$$35$0 () Int)
(declare-fun lam_arg$35$$35$5$35$$35$0 () Int)
(declare-fun lam_arg$35$$35$6$35$$35$0 () Int)
(declare-fun lam_arg$35$$35$7$35$$35$0 () Int)
(declare-fun lam_arg$35$$35$1$35$$35$15 () Str)
(declare-fun lam_arg$35$$35$2$35$$35$15 () Str)
(declare-fun lam_arg$35$$35$3$35$$35$15 () Str)
(declare-fun lam_arg$35$$35$4$35$$35$15 () Str)
(declare-fun lam_arg$35$$35$5$35$$35$15 () Str)
(declare-fun lam_arg$35$$35$6$35$$35$15 () Str)
(declare-fun lam_arg$35$$35$7$35$$35$15 () Str)
(declare-fun lam_arg$35$$35$1$35$$35$10 () Real)
(declare-fun lam_arg$35$$35$2$35$$35$10 () Real)
(declare-fun lam_arg$35$$35$3$35$$35$10 () Real)
(declare-fun lam_arg$35$$35$4$35$$35$10 () Real)
(declare-fun lam_arg$35$$35$5$35$$35$10 () Real)
(declare-fun lam_arg$35$$35$6$35$$35$10 () Real)
(declare-fun lam_arg$35$$35$7$35$$35$10 () Real)
(declare-fun lam_arg$35$$35$1$35$$35$20 () (_ BitVec 32))
(declare-fun lam_arg$35$$35$2$35$$35$20 () (_ BitVec 32))
(declare-fun lam_arg$35$$35$3$35$$35$20 () (_ BitVec 32))
(declare-fun lam_arg$35$$35$4$35$$35$20 () (_ BitVec 32))
(declare-fun lam_arg$35$$35$5$35$$35$20 () (_ BitVec 32))
(declare-fun lam_arg$35$$35$6$35$$35$20 () (_ BitVec 32))
(declare-fun lam_arg$35$$35$7$35$$35$20 () (_ BitVec 32))
(declare-fun lam_arg$35$$35$1$35$$35$5 () Bool)
(declare-fun lam_arg$35$$35$2$35$$35$5 () Bool)
(declare-fun lam_arg$35$$35$3$35$$35$5 () Bool)
(declare-fun lam_arg$35$$35$4$35$$35$5 () Bool)
(declare-fun lam_arg$35$$35$5$35$$35$5 () Bool)
(declare-fun lam_arg$35$$35$6$35$$35$5 () Bool)
(declare-fun lam_arg$35$$35$7$35$$35$5 () Bool)











(assert (distinct Internal.Vectorized.Gaussian Internal.Vectorized.Uniform))


(assert (distinct lit$36$main lit$36$Main))
(assert (distinct Internal.LAPACK.Upper Internal.LAPACK.Lower))



(assert (distinct GHC.Types.True GHC.Types.False))


(assert (distinct GHC.Types.EQ GHC.Types.GT GHC.Types.LT))
(assert (= (strLen lit$36$Main) 4))
(assert (= (strLen lit$36$main) 4))
(push 1)
(assert (and (and (= (apply$35$$35$1 (as is$36$GHC.Types.$58$ Int) lq_anf$36$$35$$35$7205759403792808450$35$$35$d3Rw) false) (= (apply$35$$35$1 (as is$36$GHC.Types.$91$$93$ Int) lq_anf$36$$35$$35$7205759403792808450$35$$35$d3Rw) true) (= (apply$35$$35$0 (as len Int) lq_anf$36$$35$$35$7205759403792808450$35$$35$d3Rw) 0) (= lq_anf$36$$35$$35$7205759403792808450$35$$35$d3Rw (as GHC.Types.$91$$93$ Int)) (>= (apply$35$$35$0 (as len Int) lq_anf$36$$35$$35$7205759403792808450$35$$35$d3Rw) 0)) (and (= (apply$35$$35$0 (as tail Int) lq_anf$36$$35$$35$7205759403792808451$35$$35$d3Rx) lq_anf$36$$35$$35$7205759403792808450$35$$35$d3Rw) (= (apply$35$$35$2 (as head Int) lq_anf$36$$35$$35$7205759403792808451$35$$35$d3Rx) lq_anf$36$$35$$35$7205759403792808449$35$$35$d3Rv) (= (apply$35$$35$0 (as lqdc$35$$35$$36$select$35$$35$GHC.Types.$58$$35$$35$2 Int) lq_anf$36$$35$$35$7205759403792808451$35$$35$d3Rx) lq_anf$36$$35$$35$7205759403792808450$35$$35$d3Rw) (= (apply$35$$35$2 (as lqdc$35$$35$$36$select$35$$35$GHC.Types.$58$$35$$35$1 Int) lq_anf$36$$35$$35$7205759403792808451$35$$35$d3Rx) lq_anf$36$$35$$35$7205759403792808449$35$$35$d3Rv) (= (apply$35$$35$1 (as is$36$GHC.Types.$58$ Int) lq_anf$36$$35$$35$7205759403792808451$35$$35$d3Rx) true) (= (apply$35$$35$1 (as is$36$GHC.Types.$91$$93$ Int) lq_anf$36$$35$$35$7205759403792808451$35$$35$d3Rx) false) (= (apply$35$$35$0 (as len Int) lq_anf$36$$35$$35$7205759403792808451$35$$35$d3Rx) (+ 1 (apply$35$$35$0 (as len Int) lq_anf$36$$35$$35$7205759403792808450$35$$35$d3Rw))) (= lq_anf$36$$35$$35$7205759403792808451$35$$35$d3Rx (apply$35$$35$0 (apply$35$$35$10 (as GHC.Types.$58$ Int) lq_anf$36$$35$$35$7205759403792808449$35$$35$d3Rv) lq_anf$36$$35$$35$7205759403792808450$35$$35$d3Rw)) (= lq_anf$36$$35$$35$7205759403792808451$35$$35$d3Rx (apply$35$$35$0 (apply$35$$35$10 (as GHC.Types.$58$ Int) lq_anf$36$$35$$35$7205759403792808449$35$$35$d3Rv) lq_anf$36$$35$$35$7205759403792808450$35$$35$d3Rw)) (= lq_anf$36$$35$$35$7205759403792808451$35$$35$d3Rx (apply$35$$35$0 (apply$35$$35$10 (as GHC.Types.$58$ Int) lq_anf$36$$35$$35$7205759403792808449$35$$35$d3Rv) lq_anf$36$$35$$35$7205759403792808450$35$$35$d3Rw)) (>= (apply$35$$35$0 (as len Int) lq_anf$36$$35$$35$7205759403792808451$35$$35$d3Rx) 0)) (and (= lq_anf$36$$35$$35$7205759403792808452$35$$35$d3Ry (apply$35$$35$0 (as Data.Vector.Storable.fromList Int) lq_anf$36$$35$$35$7205759403792808451$35$$35$d3Rx)) (= lq_anf$36$$35$$35$7205759403792808452$35$$35$d3Ry (apply$35$$35$0 (as Data.Vector.Storable.fromList Int) lq_anf$36$$35$$35$7205759403792808451$35$$35$d3Rx))) (and (= lq_anf$36$$35$$35$7205759403792808453$35$$35$d3Rz 1.00000) (= lq_anf$36$$35$$35$7205759403792808453$35$$35$d3Rz (apply$35$$35$12 GHC.Types.D$35$ 1.00000)) (= lq_anf$36$$35$$35$7205759403792808453$35$$35$d3Rz (apply$35$$35$12 GHC.Types.D$35$ 1.00000))) (not GHC.Types.False) (and (= (apply$35$$35$1 (as is$36$GHC.Types.$58$ Int) lq_anf$36$$35$$35$7205759403792808454$35$$35$d3RA) false) (= (apply$35$$35$1 (as is$36$GHC.Types.$91$$93$ Int) lq_anf$36$$35$$35$7205759403792808454$35$$35$d3RA) true) (= (apply$35$$35$0 (as len Int) lq_anf$36$$35$$35$7205759403792808454$35$$35$d3RA) 0) (= lq_anf$36$$35$$35$7205759403792808454$35$$35$d3RA (as GHC.Types.$91$$93$ Int)) (>= (apply$35$$35$0 (as len Int) lq_anf$36$$35$$35$7205759403792808454$35$$35$d3RA) 0)) GHC.Types.True (and (= (apply$35$$35$0 (as tail Int) lq_anf$36$$35$$35$7205759403792808455$35$$35$d3RB) lq_anf$36$$35$$35$7205759403792808454$35$$35$d3RA) (= (apply$35$$35$2 (as head Int) lq_anf$36$$35$$35$7205759403792808455$35$$35$d3RB) lq_anf$36$$35$$35$7205759403792808453$35$$35$d3Rz) (= (apply$35$$35$0 (as lqdc$35$$35$$36$select$35$$35$GHC.Types.$58$$35$$35$2 Int) lq_anf$36$$35$$35$7205759403792808455$35$$35$d3RB) lq_anf$36$$35$$35$7205759403792808454$35$$35$d3RA) (= (apply$35$$35$2 (as lqdc$35$$35$$36$select$35$$35$GHC.Types.$58$$35$$35$1 Int) lq_anf$36$$35$$35$7205759403792808455$35$$35$d3RB) lq_anf$36$$35$$35$7205759403792808453$35$$35$d3Rz) (= (apply$35$$35$1 (as is$36$GHC.Types.$58$ Int) lq_anf$36$$35$$35$7205759403792808455$35$$35$d3RB) true) (= (apply$35$$35$1 (as is$36$GHC.Types.$91$$93$ Int) lq_anf$36$$35$$35$7205759403792808455$35$$35$d3RB) false) (= (apply$35$$35$0 (as len Int) lq_anf$36$$35$$35$7205759403792808455$35$$35$d3RB) (+ 1 (apply$35$$35$0 (as len Int) lq_anf$36$$35$$35$7205759403792808454$35$$35$d3RA))) (= lq_anf$36$$35$$35$7205759403792808455$35$$35$d3RB (apply$35$$35$0 (apply$35$$35$10 (as GHC.Types.$58$ Int) lq_anf$36$$35$$35$7205759403792808453$35$$35$d3Rz) lq_anf$36$$35$$35$7205759403792808454$35$$35$d3RA)) (= lq_anf$36$$35$$35$7205759403792808455$35$$35$d3RB (apply$35$$35$0 (apply$35$$35$10 (as GHC.Types.$58$ Int) lq_anf$36$$35$$35$7205759403792808453$35$$35$d3Rz) lq_anf$36$$35$$35$7205759403792808454$35$$35$d3RA)) (= lq_anf$36$$35$$35$7205759403792808455$35$$35$d3RB (apply$35$$35$0 (apply$35$$35$10 (as GHC.Types.$58$ Int) lq_anf$36$$35$$35$7205759403792808453$35$$35$d3Rz) lq_anf$36$$35$$35$7205759403792808454$35$$35$d3RA)) (>= (apply$35$$35$0 (as len Int) lq_anf$36$$35$$35$7205759403792808455$35$$35$d3RB) 0)) (and (= VV$35$$35$F$35$$35$6 (apply$35$$35$0 (as Data.Vector.Storable.fromList Int) lq_anf$36$$35$$35$7205759403792808455$35$$35$d3RB)) (= VV$35$$35$F$35$$35$6 (apply$35$$35$0 (as Data.Vector.Storable.fromList Int) lq_anf$36$$35$$35$7205759403792808455$35$$35$d3RB)) (= VV$35$$35$F$35$$35$6 lq_anf$36$$35$$35$7205759403792808456$35$$35$d3RC)) (and (= lq_anf$36$$35$$35$7205759403792808456$35$$35$d3RC (apply$35$$35$0 (as Data.Vector.Storable.fromList Int) lq_anf$36$$35$$35$7205759403792808455$35$$35$d3RB)) (= lq_anf$36$$35$$35$7205759403792808456$35$$35$d3RC (apply$35$$35$0 (as Data.Vector.Storable.fromList Int) lq_anf$36$$35$$35$7205759403792808455$35$$35$d3RB))) (and (= lq_anf$36$$35$$35$7205759403792808449$35$$35$d3Rv 1.00000) (= lq_anf$36$$35$$35$7205759403792808449$35$$35$d3Rv (apply$35$$35$12 GHC.Types.D$35$ 1.00000)) (= lq_anf$36$$35$$35$7205759403792808449$35$$35$d3Rv (apply$35$$35$12 GHC.Types.D$35$ 1.00000)))))
(push 1)
(assert (not (= (apply$35$$35$0 (as len Int) VV$35$$35$F$35$$35$6) (apply$35$$35$0 (as len Int) lq_anf$36$$35$$35$7205759403792808452$35$$35$d3Ry))))
(check-sat)
; SMT Says: Unsat
(pop 1)
(pop 1)
(exit)
